data;
set WEIGHTS := x0 x1 x2 x3 x4 x5 x6 x7 x8 x9 x10 x11 x12 x13;
param:  cost :=
  x0  210
  x1  211
  x2  212
  x3  213
  x4  214
  x5  215
  x6  216
  x7  217
  x8  218
  x9  219
  x10  220
  x11  221
  x12  222
  x13  223;
param cap := 1456;